600,246
635,264
667,318
921,406
709,229
570,64
611,503
658,554
598,662
626,577
822,212
829,258
786,261
563,424
533,383
415,364
321,46
171,406
148,490
453,480
606,880
515,919
600,566
753,458
823,452
808,279
803,166
611,309
1095,341
